NAME: tsp5_2
COMMENT: 5-tsp problem (Padberg/Rinaldi)
TYPE: TSP
DIMENSION: 5
EDGE_WEIGHT_TYPE : EUC_2D
NODE_COORD_SECTION
1.00 7.69 24.45
2.00 16.94 21.46
3.00 22.57 7.66
4.00 18.81 9.79
5.00 33.89 7.99
